p cnf 403 482
c ind 164 165 166 167 168 169 170 0
c ind 171 172 173 174 175 176 177 178 179 180 0
c ind 181 182 183 184 185 186 187 188 189 190 0
c ind 191 192 193 194 195 196 197 198 199 200 0
c ind 201 202 203 204 205 206 207 208 209 210 0
c ind 211 212 213 214 215 216 217 218 219 220 0
c ind 221 222 223 224 225 226 227 228 229 230 0
c ind 231 232 233 234 235 236 237 238 239 240 0
c ind 241 242 243 244 245 246 247 248 249 250 0
c ind 251 252 253 254 255 256 257 258 259 260 0
c ind 261 262 263 264 265 266 267 268 269 270 0
c ind 271 272 273 274 275 276 277 278 279 280 0
c ind 281 282 283 284 285 286 287 288 289 290 0
c ind 291 292 293 294 295 296 297 298 299 300 0
c ind 301 302 303 304 305 306 307 308 309 310 0
c ind 311 312 313 314 315 316 317 318 319 320 0
c ind 321 322 323 324 325 326 327 328 329 330 0
c ind 331 332 333 334 335 336 337 338 339 340 0
c ind 341 342 343 344 345 346 347 348 349 350 0
c ind 351 352 353 354 355 356 357 358 359 360 0
c ind 361 362 363 364 365 366 367 368 369 370 0
c ind 371 372 373 374 375 376 377 378 379 380 0
c ind 381 382 383 384 385 386 387 388 389 390 0
c ind 391 392 393 394 395 396 397 398 399 400 0
c ind 401 402 403 0
151 0
-28 0
-1 -164 7 0
1 -164 -7 0
-1 -165 15 0
1 -165 -15 0
-1 -166 40 0
1 -166 -40 0
-1 -167 43 0
1 -167 -43 0
-1 -168 51 0
1 -168 -51 0
-1 -169 69 0
1 -169 -69 0
-2 -170 28 0
2 -170 -28 0
-2 -171 46 0
2 -171 -46 0
-2 -172 47 0
2 -172 -47 0
-3 -173 4 0
3 -173 -4 0
-3 -174 23 0
3 -174 -23 0
-3 -175 126 0
3 -175 -126 0
-3 -176 148 0
3 -176 -148 0
-3 -177 160 0
3 -177 -160 0
-4 -178 6 0
4 -178 -6 0
-4 -179 11 0
4 -179 -11 0
-4 -180 17 0
4 -180 -17 0
-4 -181 23 0
4 -181 -23 0
-4 -182 39 0
4 -182 -39 0
-4 -183 123 0
4 -183 -123 0
-4 -184 124 0
4 -184 -124 0
-5 -185 127 0
5 -185 -127 0
-6 -186 23 0
6 -186 -23 0
-6 -187 113 0
6 -187 -113 0
-7 -188 10 0
7 -188 -10 0
-7 -189 28 0
7 -189 -28 0
-7 -190 44 0
7 -190 -44 0
-7 -191 48 0
7 -191 -48 0
-8 -192 28 0
8 -192 -28 0
-8 -193 36 0
8 -193 -36 0
-8 -194 37 0
8 -194 -37 0
-9 -195 29 0
9 -195 -29 0
-9 -196 30 0
9 -196 -30 0
-10 -197 16 0
10 -197 -16 0
-10 -198 39 0
10 -198 -39 0
-10 -199 112 0
10 -199 -112 0
-11 -200 12 0
11 -200 -12 0
-11 -201 18 0
11 -201 -18 0
-11 -202 105 0
11 -202 -105 0
-11 -203 139 0
11 -203 -139 0
-11 -204 147 0
11 -204 -147 0
-11 -205 151 0
11 -205 -151 0
-11 -206 152 0
11 -206 -152 0
-12 -207 136 0
12 -207 -136 0
-12 -208 141 0
12 -208 -141 0
-12 -209 144 0
12 -209 -144 0
-12 -210 162 0
12 -210 -162 0
-13 -211 135 0
13 -211 -135 0
-13 -212 136 0
13 -212 -136 0
-14 -213 23 0
14 -213 -23 0
-14 -214 56 0
14 -214 -56 0
-14 -215 57 0
14 -215 -57 0
-14 -216 60 0
14 -216 -60 0
-15 -217 40 0
15 -217 -40 0
-15 -218 46 0
15 -218 -46 0
-15 -219 51 0
15 -219 -51 0
-15 -220 52 0
15 -220 -52 0
-15 -221 54 0
15 -221 -54 0
-15 -222 55 0
15 -222 -55 0
-15 -223 66 0
15 -223 -66 0
-16 -224 19 0
16 -224 -19 0
-16 -225 56 0
16 -225 -56 0
-17 -226 70 0
17 -226 -70 0
-17 -227 94 0
17 -227 -94 0
-17 -228 96 0
17 -228 -96 0
-17 -229 109 0
17 -229 -109 0
-17 -230 117 0
17 -230 -117 0
-17 -231 118 0
17 -231 -118 0
-17 -232 128 0
17 -232 -128 0
-17 -233 132 0
17 -233 -132 0
-18 -234 155 0
18 -234 -155 0
-18 -235 157 0
18 -235 -157 0
-18 -236 163 0
18 -236 -163 0
-19 -237 45 0
19 -237 -45 0
-20 -238 28 0
20 -238 -28 0
-20 -239 31 0
20 -239 -31 0
-20 -240 36 0
20 -240 -36 0
-21 -241 71 0
21 -241 -71 0
-21 -242 80 0
21 -242 -80 0
-21 -243 82 0
21 -243 -82 0
-22 -244 69 0
22 -244 -69 0
-22 -245 75 0
22 -245 -75 0
-22 -246 76 0
22 -246 -76 0
-22 -247 100 0
22 -247 -100 0
-22 -248 101 0
22 -248 -101 0
-22 -249 103 0
22 -249 -103 0
-22 -250 109 0
22 -250 -109 0
-23 -251 51 0
23 -251 -51 0
-23 -252 113 0
23 -252 -113 0
-23 -253 117 0
23 -253 -117 0
-23 -254 121 0
23 -254 -121 0
-23 -255 122 0
23 -255 -122 0
-23 -256 137 0
23 -256 -137 0
-24 -257 25 0
24 -257 -25 0
-24 -258 28 0
24 -258 -28 0
-25 -259 28 0
25 -259 -28 0
-25 -260 32 0
25 -260 -32 0
-25 -261 33 0
25 -261 -33 0
-26 -262 27 0
26 -262 -27 0
-27 -263 28 0
27 -263 -28 0
-28 -264 29 0
28 -264 -29 0
-28 -265 30 0
28 -265 -30 0
-28 -266 37 0
28 -266 -37 0
-28 -267 47 0
28 -267 -47 0
-29 -268 31 0
29 -268 -31 0
-29 -269 33 0
29 -269 -33 0
-30 -270 31 0
30 -270 -31 0
-33 -271 34 0
33 -271 -34 0
-33 -272 35 0
33 -272 -35 0
-37 -273 38 0
37 -273 -38 0
-40 -274 41 0
40 -274 -41 0
-42 -275 43 0
42 -275 -43 0
-44 -276 48 0
44 -276 -48 0
-45 -277 46 0
45 -277 -46 0
-45 -278 48 0
45 -278 -48 0
-45 -279 50 0
45 -279 -50 0
-46 -280 49 0
46 -280 -49 0
-50 -281 51 0
50 -281 -51 0
-52 -282 53 0
52 -282 -53 0
-52 -283 59 0
52 -283 -59 0
-52 -284 66 0
52 -284 -66 0
-52 -285 70 0
52 -285 -70 0
-53 -286 54 0
53 -286 -54 0
-53 -287 59 0
53 -287 -59 0
-53 -288 70 0
53 -288 -70 0
-54 -289 70 0
54 -289 -70 0
-55 -290 57 0
55 -290 -57 0
-55 -291 60 0
55 -291 -60 0
-58 -292 60 0
58 -292 -60 0
-58 -293 118 0
58 -293 -118 0
-59 -294 60 0
59 -294 -60 0
-59 -295 63 0
59 -295 -63 0
-59 -296 127 0
59 -296 -127 0
-61 -297 62 0
61 -297 -62 0
-62 -298 63 0
62 -298 -63 0
-62 -299 118 0
62 -299 -118 0
-64 -300 65 0
64 -300 -65 0
-64 -301 66 0
64 -301 -66 0
-64 -302 69 0
64 -302 -69 0
-66 -303 68 0
66 -303 -68 0
-67 -304 68 0
67 -304 -68 0
-67 -305 71 0
67 -305 -71 0
-68 -306 69 0
68 -306 -69 0
-69 -307 100 0
69 -307 -100 0
-70 -308 71 0
70 -308 -71 0
-70 -309 82 0
70 -309 -82 0
-70 -310 92 0
70 -310 -92 0
-70 -311 95 0
70 -311 -95 0
-71 -312 73 0
71 -312 -73 0
-71 -313 75 0
71 -313 -75 0
-72 -314 73 0
72 -314 -73 0
-72 -315 100 0
72 -315 -100 0
-73 -316 74 0
73 -316 -74 0
-75 -317 78 0
75 -317 -78 0
-76 -318 78 0
76 -318 -78 0
-76 -319 79 0
76 -319 -79 0
-77 -320 78 0
77 -320 -78 0
-78 -321 79 0
78 -321 -79 0
-79 -322 84 0
79 -322 -84 0
-79 -323 89 0
79 -323 -89 0
-81 -324 83 0
81 -324 -83 0
-81 -325 84 0
81 -325 -84 0
-82 -326 83 0
82 -326 -83 0
-84 -327 85 0
84 -327 -85 0
-86 -328 87 0
86 -328 -87 0
-87 -329 88 0
87 -329 -88 0
-87 -330 89 0
87 -330 -89 0
-88 -331 97 0
88 -331 -97 0
-90 -332 95 0
90 -332 -95 0
-91 -333 95 0
91 -333 -95 0
-92 -334 94 0
92 -334 -94 0
-93 -335 95 0
93 -335 -95 0
-93 -336 116 0
93 -336 -116 0
-96 -337 97 0
96 -337 -97 0
-96 -338 99 0
96 -338 -99 0
-96 -339 116 0
96 -339 -116 0
-98 -340 99 0
98 -340 -99 0
-99 -341 111 0
99 -341 -111 0
-102 -342 106 0
102 -342 -106 0
-102 -343 151 0
102 -343 -151 0
-103 -344 104 0
103 -344 -104 0
-103 -345 106 0
103 -345 -106 0
-104 -346 105 0
104 -346 -105 0
-104 -347 106 0
104 -347 -106 0
-105 -348 106 0
105 -348 -106 0
-106 -349 107 0
106 -349 -107 0
-107 -350 109 0
107 -350 -109 0
-108 -351 109 0
108 -351 -109 0
-109 -352 110 0
109 -352 -110 0
-109 -353 129 0
109 -353 -129 0
-109 -354 131 0
109 -354 -131 0
-110 -355 111 0
110 -355 -111 0
-111 -356 116 0
111 -356 -116 0
-114 -357 116 0
114 -357 -116 0
-115 -358 116 0
115 -358 -116 0
-115 -359 117 0
115 -359 -117 0
-115 -360 118 0
115 -360 -118 0
-116 -361 117 0
116 -361 -117 0
-116 -362 118 0
116 -362 -118 0
-118 -363 119 0
118 -363 -119 0
-119 -364 127 0
119 -364 -127 0
-120 -365 127 0
120 -365 -127 0
-120 -366 132 0
120 -366 -132 0
-122 -367 147 0
122 -367 -147 0
-124 -368 125 0
124 -368 -125 0
-127 -369 128 0
127 -369 -128 0
-128 -370 137 0
128 -370 -137 0
-128 -371 161 0
128 -371 -161 0
-129 -372 130 0
129 -372 -130 0
-130 -373 133 0
130 -373 -133 0
-131 -374 133 0
131 -374 -133 0
-132 -375 152 0
132 -375 -152 0
-133 -376 134 0
133 -376 -134 0
-133 -377 151 0
133 -377 -151 0
-133 -378 152 0
133 -378 -152 0
-134 -379 151 0
134 -379 -151 0
-135 -380 136 0
135 -380 -136 0
-135 -381 137 0
135 -381 -137 0
-135 -382 151 0
135 -382 -151 0
-137 -383 138 0
137 -383 -138 0
-139 -384 140 0
139 -384 -140 0
-139 -385 143 0
139 -385 -143 0
-139 -386 149 0
139 -386 -149 0
-139 -387 150 0
139 -387 -150 0
-140 -388 151 0
140 -388 -151 0
-141 -389 148 0
141 -389 -148 0
-141 -390 159 0
141 -390 -159 0
-142 -391 151 0
142 -391 -151 0
-143 -392 146 0
143 -392 -146 0
-143 -393 151 0
143 -393 -151 0
-144 -394 145 0
144 -394 -145 0
-147 -395 148 0
147 -395 -148 0
-150 -396 153 0
150 -396 -153 0
-151 -397 152 0
151 -397 -152 0
-153 -398 155 0
153 -398 -155 0
-153 -399 162 0
153 -399 -162 0
-154 -400 162 0
154 -400 -162 0
-155 -401 156 0
155 -401 -156 0
-158 -402 159 0
158 -402 -159 0
-158 -403 160 0
158 -403 -160 0
w 164 0.5625
w 165 0.5
w 166 0.5
w 167 0.5
w 168 0.5
w 169 0.5
w 170 0.5
w 171 0.5
w 172 0.5
w 173 0.5
w 174 0.5
w 175 0.5
w 176 0.5
w 177 0.5
w 178 0.5
w 179 0.5
w 180 0.5
w 181 0.5
w 182 0.5
w 183 0.5
w 184 0.5
w 185 0.5
w 186 0.5
w 187 0.5
w 188 0.5
w 189 0.4375
w 190 0.5
w 191 0.5
w 192 0.5
w 193 0.5
w 194 0.5
w 195 0.5
w 196 0.5
w 197 0.5
w 198 0.5
w 199 0.5
w 200 0.5
w 201 0.5
w 202 0.5
w 203 0.5
w 204 0.5
w 205 0.5
w 206 0.5
w 207 0.5
w 208 0.5
w 209 0.5
w 210 0.5
w 211 0.5
w 212 0.5
w 213 0.5
w 214 0.4375
w 215 0.5
w 216 0.5
w 217 0.5
w 218 0.5
w 219 0.5
w 220 0.5
w 221 0.5
w 222 0.5
w 223 0.5
w 224 0.5
w 225 0.5
w 226 0.5
w 227 0.5
w 228 0.5
w 229 0.5
w 230 0.5
w 231 0.5
w 232 0.5
w 233 0.5
w 234 0.5
w 235 0.5
w 236 0.5
w 237 0.5
w 238 0.5
w 239 0.5
w 240 0.5
w 241 0.5
w 242 0.5
w 243 0.5
w 244 0.5
w 245 0.5
w 246 0.5
w 247 0.5
w 248 0.5
w 249 0.5
w 250 0.5
w 251 0.5
w 252 0.5
w 253 0.5
w 254 0.5
w 255 0.5
w 256 0.5
w 257 0.5
w 258 0.5
w 259 0.5
w 260 0.5
w 261 0.5
w 262 0.5
w 263 0.5
w 264 0.5
w 265 0.5
w 266 0.5
w 267 0.5
w 268 0.5
w 269 0.5
w 270 0.5
w 271 0.5
w 272 0.5
w 273 0.5
w 274 0.5
w 275 0.5
w 276 0.5
w 277 0.5
w 278 0.5
w 279 0.5
w 280 0.5
w 281 0.5
w 282 0.5
w 283 0.5
w 284 0.5
w 285 0.5
w 286 0.5
w 287 0.5
w 288 0.5
w 289 0.5
w 290 0.5
w 291 0.5
w 292 0.5
w 293 0.5
w 294 0.5
w 295 0.5
w 296 0.5
w 297 0.5625
w 298 0.5625
w 299 0.5
w 300 0.5
w 301 0.5
w 302 0.5
w 303 0.5
w 304 0.5
w 305 0.5
w 306 0.5
w 307 0.5625
w 308 0.5
w 309 0.5
w 310 0.5
w 311 0.5
w 312 0.4375
w 313 0.5625
w 314 0.5
w 315 0.5
w 316 0.5
w 317 0.5
w 318 0.5
w 319 0.5
w 320 0.5
w 321 0.5
w 322 0.5
w 323 0.5
w 324 0.5
w 325 0.5625
w 326 0.5
w 327 0.5
w 328 0.5
w 329 0.5
w 330 0.5
w 331 0.5
w 332 0.5
w 333 0.5
w 334 0.5
w 335 0.5
w 336 0.4375
w 337 0.5
w 338 0.5
w 339 0.5
w 340 0.5
w 341 0.5
w 342 0.5
w 343 0.5
w 344 0.5
w 345 0.5
w 346 0.5
w 347 0.5
w 348 0.5
w 349 0.5
w 350 0.5
w 351 0.5
w 352 0.5
w 353 0.5
w 354 0.5
w 355 0.5
w 356 0.5
w 357 0.5
w 358 0.5
w 359 0.5
w 360 0.5
w 361 0.5
w 362 0.5
w 363 0.5
w 364 0.5
w 365 0.5
w 366 0.5
w 367 0.5
w 368 0.5
w 369 0.5
w 370 0.5
w 371 0.5
w 372 0.5
w 373 0.5
w 374 0.5
w 375 0.5
w 376 0.5
w 377 0.5
w 378 0.5
w 379 0.5
w 380 0.5
w 381 0.5
w 382 0.5
w 383 0.5
w 384 0.5
w 385 0.5
w 386 0.5
w 387 0.5
w 388 0.5
w 389 0.5
w 390 0.5
w 391 0.5
w 392 0.5625
w 393 0.5
w 394 0.5
w 395 0.5
w 396 0.5
w 397 0.5
w 398 0.5
w 399 0.5
w 400 0.5
w 401 0.5625
w 402 0.5
w 403 0.5
